ilp_joint/output/fertilization_ilp.lp
Maximize
  9.1176978853908049e-04 Z_661_0_0 + 0.00169914184624606 Z_661_0_1
   + 0.5480142571497313 Z_661_0_2 + 0.00156415650899315 Z_661_0_3
   + 0.3478106747064905 Z_661_0_4 + 0.00159916346324908 Z_365_1_0
   + 0.00297564813364936 Z_365_1_1 + 0.3788537598405499 Z_365_1_2
   + 0.00923807953078684 Z_365_1_3 + 0.5073333490317649 Z_365_1_4
   + 0.00159916346324908 Z_365_0_0 + 0.00297564813364936 Z_365_0_1
   + 0.3788537598405499 Z_365_0_2 + 0.00923807953078684 Z_365_0_3
   + 0.5073333490317649 Z_365_0_4 + 0.00935142355621177 Z_365_3_0
   + 0.00390231461801179 Z_365_3_1 + 0.0227176735511429 Z_365_3_2
   + 0.00883861965194685 Z_365_3_3 + 0.8551899686226867 Z_365_3_4
   + 0.074004662116412 Z_365_2_0 + 0.058758706223902 Z_365_2_1
   + 0.00755660560432814 Z_365_2_2 + 0.1090130961816399 Z_365_2_3
   + 0.650666929873718 Z_365_2_4 + 0.0673588579294031 Z_365_5_0
   + 0.0109166 Z_365_5_1 + 0.00961176412700433 Z_365_5_2
   + 0.00947903064181743 Z_365_5_3 + 0.8026337473812233 Z_365_5_4
   + 0.0208813161702943 Z_365_4_0 + 0.0311780173384687 Z_365_4_1
   + 0.0188470453715181 Z_365_4_2 + 0.0615270575533142 Z_365_4_3
   + 0.7675665635664047 Z_365_4_4
Subject To
 constraint1_6610: Z_661_0_0 + Z_661_0_1 + Z_661_0_2 + Z_661_0_3
   + Z_661_0_4 <= 1
 constraint1_3651: Z_365_1_0 + Z_365_1_1 + Z_365_1_2 + Z_365_1_3
   + Z_365_1_4 <= 1
 constraint1_3650: Z_365_0_0 + Z_365_0_1 + Z_365_0_2 + Z_365_0_3
   + Z_365_0_4 <= 1
 constraint1_3653: Z_365_3_0 + Z_365_3_1 + Z_365_3_2 + Z_365_3_3
   + Z_365_3_4 <= 1
 constraint1_3652: Z_365_2_0 + Z_365_2_1 + Z_365_2_2 + Z_365_2_3
   + Z_365_2_4 <= 1
 constraint1_3655: Z_365_5_0 + Z_365_5_1 + Z_365_5_2 + Z_365_5_3
   + Z_365_5_4 <= 1
 constraint1_3654: Z_365_4_0 + Z_365_4_1 + Z_365_4_2 + Z_365_4_3
   + Z_365_4_4 <= 1
 constraint2_6610: Z_661_0_0 <= 1
 constraint2_6611: Z_661_0_1 <= 1
 constraint2_6612: Z_661_0_2 <= 1
 constraint2_6613: Z_661_0_3 <= 1
 constraint2_3650: Z_365_1_0 + Z_365_0_0 + Z_365_3_0 + Z_365_2_0
   + Z_365_5_0 + Z_365_4_0 <= 1
 constraint2_3651: Z_365_1_1 + Z_365_0_1 + Z_365_3_1 + Z_365_2_1
   + Z_365_5_1 + Z_365_4_1 <= 1
 constraint2_3652: Z_365_1_2 + Z_365_0_2 + Z_365_3_2 + Z_365_2_2
   + Z_365_5_2 + Z_365_4_2 <= 1
 constraint2_3653: Z_365_1_3 + Z_365_0_3 + Z_365_3_3 + Z_365_2_3
   + Z_365_5_3 + Z_365_4_3 <= 1
Bounds
Binaries
 Z_661_0_0 Z_661_0_1 Z_661_0_2 Z_661_0_3 Z_661_0_4 Z_365_1_0 Z_365_1_1
 Z_365_1_2 Z_365_1_3 Z_365_1_4 Z_365_0_0 Z_365_0_1 Z_365_0_2 Z_365_0_3
 Z_365_0_4 Z_365_3_0 Z_365_3_1 Z_365_3_2 Z_365_3_3 Z_365_3_4 Z_365_2_0
 Z_365_2_1 Z_365_2_2 Z_365_2_3 Z_365_2_4 Z_365_5_0 Z_365_5_1 Z_365_5_2
 Z_365_5_3 Z_365_5_4 Z_365_4_0 Z_365_4_1 Z_365_4_2 Z_365_4_3 Z_365_4_4
End
