ilp_joint/output/fertilization_ilp.sol
# Solution for model fertilization_srl_ilp
# Objective value = 4.6268702416560520e-01
Z_490_0_0 0
Z_490_0_1 0
Z_490_0_2 1
Z_490_0_3 0
Z_490_0_4 0
